Copyright (C) 2013-2015, Filipe Brandao
Build (method = -2)
  #dp: 14580
  Step-3' Graph: 258 vertices and 5887 arcs (0.03s)
  Step-4' Graph: 154 vertices and 5679 arcs (0.03s)
  #V4/#V3 = 0.60
  #A4/#A3 = 0.96
Ready! (0.03s)
Optimize a model with 295 rows, 5680 columns and 16736 nonzeros
Presolve removed 6 rows and 25 columns
Presolve time: 0.03s
Presolved: 289 rows, 5655 columns, 15419 nonzeros
Variable types: 0 continuous, 5655 integer (3480 binary)
Found heuristic solution: objective 157.0000000
Optimize a model with 289 rows, 5655 columns and 15419 nonzeros
Presolved: 289 rows, 5655 columns, 15419 nonzeros

Root barrier log...

Ordering time: 0.00s

Barrier statistics:
 AA' NZ     : 8.509e+03
 Factor NZ  : 1.616e+04 (roughly 3 MBytes of memory)
 Factor Ops : 1.323e+06 (less than 1 second per iteration)
 Threads    : 1

                  Objective                Residual
Iter       Primal          Dual         Primal    Dual     Compl     Time
   0   1.44914494e+04 -8.36909022e+04  1.05e+05 2.93e-01  7.04e+01     0s
   1   3.89992719e+03 -1.64792209e+04  1.78e+04 1.11e-15  1.19e+01     0s
   2   5.86768917e+02 -4.76540309e+03  1.01e+03 1.55e-15  1.00e+00     0s
   3   2.72618032e+02 -7.08792291e+02  9.62e+01 9.99e-16  1.26e-01     0s
   4   1.58836311e+02 -1.69269437e+02  2.41e+01 5.27e-16  3.65e-02     0s
   5   1.24170051e+02 -6.93250499e+01  1.35e+01 3.89e-16  2.04e-02     0s
   6   1.06101582e+02 -6.61507006e+00  7.58e+00 3.19e-16  1.13e-02     0s
   7   9.81062582e+01  3.36378843e+01  4.34e+00 3.33e-16  6.27e-03     0s
   8   9.18721245e+01  5.63751967e+01  1.91e+00 2.22e-16  3.33e-03     0s
   9   9.06389947e+01  7.17721476e+01  1.58e+00 2.22e-16  1.80e-03     0s
  10   8.61240567e+01  7.80695146e+01  4.96e-01 2.45e-16  7.45e-04     0s
  11   8.40441220e+01  8.15182626e+01  1.07e-01 3.33e-16  2.29e-04     0s
  12   8.34456714e+01  8.24194930e+01  4.32e-02 2.22e-16  9.31e-05     0s
  13   8.32412553e+01  8.27173755e+01  2.22e-02 3.14e-16  4.75e-05     0s
  14   8.31355390e+01  8.28779656e+01  1.22e-02 2.61e-16  2.34e-05     0s
  15   8.30628268e+01  8.29523283e+01  5.56e-03 2.35e-16  1.01e-05     0s
  16   8.30109972e+01  8.29906249e+01  8.54e-04 3.33e-16  1.85e-06     0s
  17   8.30005794e+01  8.29992085e+01  2.96e-05 3.33e-16  1.22e-07     0s
  18   8.30000006e+01  8.29999992e+01  3.68e-12 3.33e-16  1.23e-10     0s
  19   8.30000000e+01  8.30000000e+01  1.30e-12 3.33e-16  1.44e-16     0s

Barrier solved model in 19 iterations and 0.05 seconds
Optimal objective 8.30000000e+01


Root relaxation: objective 8.300000e+01, 1228 iterations, 0.07 seconds

    Nodes    |    Current Node    |     Objective Bounds      |     Work
 Expl Unexpl |  Obj  Depth IntInf | Incumbent    BestBd   Gap | It/Node Time

     0     0   83.00000    0   10  157.00000   83.00000  47.1%     -    0s
H    0     0                      84.0000000   83.00000  1.19%     -    0s
H    0     0                      83.0000000   83.00000  0.00%     -    0s

Explored 0 nodes (3109 simplex iterations) in 0.28 seconds
Thread count was 1 (of 4 available processors)

Optimal solution found (tolerance 0.00e+00)
Best objective 8.300000000000e+01, best bound 8.300000000000e+01, gap 0.0%
Preprocessing time: 0.04 seconds
Gurobi run time: 0.28 seconds
Total run time: 0.32 seconds
Objective: 83
Solution:
1 x [i=1, i=139, i=140]
1 x [i=2, i=138, i=139]
1 x [i=3, i=136, i=139]
1 x [i=4, i=135, i=136]
1 x [i=5, i=130, i=140]
1 x [i=6, i=132, i=136]
1 x [i=7, i=127, i=139]
1 x [i=8, i=130, i=134]
1 x [i=9, i=120, i=140]
1 x [i=9, i=128, i=131]
1 x [i=10, i=124, i=134]
1 x [i=11, i=119, i=138]
1 x [i=11, i=122, i=135]
1 x [i=12, i=128, i=128]
1 x [i=13, i=114, i=138]
1 x [i=14, i=113, i=138]
1 x [i=14, i=119, i=131]
1 x [i=15, i=113, i=136]
1 x [i=16, i=123, i=125]
1 x [i=17, i=119, i=127]
1 x [i=18, i=114, i=130]
1 x [i=19, i=111, i=130]
1 x [i=20, i=107, i=136]
1 x [i=20, i=113, i=128]
1 x [i=21, i=106, i=136]
1 x [i=22, i=116, i=124]
1 x [i=23, i=100, i=141]
1 x [i=23, i=118, i=119]
1 x [i=24, i=118, i=118]
2 x [i=25, i=101, i=136]
1 x [i=26, i=110, i=121]
1 x [i=27, i=96, i=138]
1 x [i=28, i=102, i=125]
1 x [i=29, i=96, i=129]
1 x [i=29, i=108, i=116]
1 x [i=30, i=91, i=136]
1 x [i=31, i=94, i=127]
1 x [i=32, i=108, i=109]
1 x [i=33, i=84, i=136]
1 x [i=33, i=103, i=112]
1 x [i=34, i=85, i=134]
1 x [i=34, i=97, i=119]
1 x [i=35, i=87, i=131]
1 x [i=36, i=82, i=136]
1 x [i=36, i=86, i=130]
1 x [i=37, i=96, i=116]
1 x [i=38, i=80, i=134]
1 x [i=38, i=89, i=123]
1 x [i=39, i=76, i=138]
1 x [i=40, i=103, i=103]
1 x [i=41, i=90, i=118]
1 x [i=42, i=88, i=120]
1 x [i=42, i=92, i=115]
1 x [i=43, i=87, i=117]
1 x [i=43, i=93, i=109]
1 x [i=44, i=98, i=104]
1 x [i=45, i=79, i=126]
1 x [i=46, i=77, i=127]
1 x [i=46, i=78, i=126]
1 x [i=47, i=72, i=137]
1 x [i=48, i=94, i=103]
1 x [i=49, i=71, i=134]
1 x [i=50, i=83, i=114]
1 x [i=51, i=70, i=138]
1 x [i=52, i=89, i=107]
1 x [i=53, i=81, i=112]
1 x [i=54, i=75, i=122]
1 x [i=55, i=68, i=133]
1 x [i=56, i=83, i=105]
2 x [i=57, i=63, i=135]
1 x [i=58, i=62, i=135]
1 x [i=59, i=73, i=114]
1 x [i=59, i=89, i=95]
1 x [i=60, i=68, i=123]
1 x [i=61, i=68, i=121]
1 x [i=64, i=66, i=114]
1 x [i=65, i=81, i=90]
1 x [i=66, i=67, i=111]
1 x [i=67, i=73, i=99]
1 x [i=69, i=69, i=103]
1 x [i=74, i=74, i=85]
